C H N                                   
   1.00000000000000     
     5.5000000000000000   -9.5262794416290006    0.0000000000000000
     5.5000000000000000    9.5262794416290006    0.0000000000000000
     0.0000000000000000    0.0000000000000000   15.0000000000000000
   C    H    N 
     6    12    12
Selective dynamics
Direct
  0.3247110237038626  0.7807194765052188  0.4942413971926314   T   T   T
  0.5465748289916519  0.3223783576696491  0.4885372333505202   T   T   T
  0.6858567741355728  0.2243340300240177  0.4929536146643017   T   T   T
  0.4641576136184824  0.6829434783560373  0.4884438764311341   T   T   T
  0.2267855991586103  0.5437862272869722  0.4839162115747442   T   T   T
  0.7839397670862382  0.4614397712025777  0.4842536651145224   T   T   T
  0.4011203805022490  0.3926429431581511  0.4867368653950308   T   T   T
  0.3344309050451102  0.2102697249537826  0.4955503016150402   T   T   T
  0.9996050033880621  0.6070687095465388  0.4819364345081638   T   T   T
  0.7986503617792380  0.1246763461311460  0.4965032774793627   T   T   T
  0.6158041756476322  0.0087509049483216  0.4973504005240414   T   T   T
  0.8834991003113899  0.6733422571148679  0.4734309794213232   T   T   T
  0.6762187443234708  0.7949783270789084  0.4965318220345765   T   T   T
  0.2117659036111377  0.8801455449591487  0.4986755402192173   T   T   T
  0.3945527188941966  0.9961338246809888  0.4989559116942530   T   T   T
  0.1272063779257664  0.3320857715276375  0.4711912101353164   T   T   T
  0.0111157441229963  0.3981889573125770  0.4809620521703479   T   T   T
  0.6098106839062183  0.6129211737945752  0.4864081922948742   T   T   T
  0.4568018513084411  0.8019505513692309  0.4939189398611887   T   T   T
  0.3533669177882501  0.5511253923577399  0.4833981626314454   T   T   T
  0.5937124310298501  0.6974167041783446  0.4877131387454980   T   T   T
  0.4171298300542077  0.3081054057447972  0.4882654436818683   T   T   T
  0.8989749027818661  0.5907294190186576  0.4798075242622559   T   T   T
  0.7002187291759085  0.1093741576064176  0.4975394201061007   T   T   T
  0.5537987843938339  0.2032293236221747  0.4932126454430943   T   T   T
  0.6574289752776608  0.4542198771536121  0.4839951065804158   T   T   T
  0.3102169264529877  0.8955041565937663  0.5003452428979642   T   T   T
  0.8051293784383091  0.3506711823134196  0.4885776147748331   T   T   T
  0.2055104717888128  0.6544376449385467  0.4891951195033073   T   T   T
  0.1117681077699970  0.4145604470761768  0.4787349204406084   T   T   T
 
  0.00000000E+00  0.00000000E+00  0.00000000E+00
  0.00000000E+00  0.00000000E+00  0.00000000E+00
  0.00000000E+00  0.00000000E+00  0.00000000E+00
  0.00000000E+00  0.00000000E+00  0.00000000E+00
  0.00000000E+00  0.00000000E+00  0.00000000E+00
  0.00000000E+00  0.00000000E+00  0.00000000E+00
  0.00000000E+00  0.00000000E+00  0.00000000E+00
  0.00000000E+00  0.00000000E+00  0.00000000E+00
  0.00000000E+00  0.00000000E+00  0.00000000E+00
  0.00000000E+00  0.00000000E+00  0.00000000E+00
  0.00000000E+00  0.00000000E+00  0.00000000E+00
  0.00000000E+00  0.00000000E+00  0.00000000E+00
  0.00000000E+00  0.00000000E+00  0.00000000E+00
  0.00000000E+00  0.00000000E+00  0.00000000E+00
  0.00000000E+00  0.00000000E+00  0.00000000E+00
  0.00000000E+00  0.00000000E+00  0.00000000E+00
  0.00000000E+00  0.00000000E+00  0.00000000E+00
  0.00000000E+00  0.00000000E+00  0.00000000E+00
  0.00000000E+00  0.00000000E+00  0.00000000E+00
  0.00000000E+00  0.00000000E+00  0.00000000E+00
  0.00000000E+00  0.00000000E+00  0.00000000E+00
  0.00000000E+00  0.00000000E+00  0.00000000E+00
  0.00000000E+00  0.00000000E+00  0.00000000E+00
  0.00000000E+00  0.00000000E+00  0.00000000E+00
  0.00000000E+00  0.00000000E+00  0.00000000E+00
  0.00000000E+00  0.00000000E+00  0.00000000E+00
  0.00000000E+00  0.00000000E+00  0.00000000E+00
  0.00000000E+00  0.00000000E+00  0.00000000E+00
  0.00000000E+00  0.00000000E+00  0.00000000E+00
  0.00000000E+00  0.00000000E+00  0.00000000E+00
