C C H N O Ru                            
   1.00000000000000     
    20.0000000000000000    0.0000000000000000    0.0000000000000000
     0.0000000000000000   20.0000000000000000    0.0000000000000000
     0.0000000000000000    0.0000000000000000   20.0000000000000000
   C    C    H    N    O    Ru
     1    24    23     5     1     1
Selective dynamics
Direct
  0.4379375222040096  0.5656111042943834  0.3275700835380988   T   T   T
  0.2933471348813086  0.4767193794847628  0.5683011633032748   T   T   T
  0.4558120803552796  0.5242337612928338  0.3805146478659935   T   T   T
  0.4737292543489886  0.6153013095478670  0.4498652209597722   T   T   T
  0.4559517527063335  0.6596331169997924  0.3993520125911871   T   T   T
  0.4378573694765606  0.6347220139696859  0.3367597206478905   T   T   T
  0.5230788192282319  0.3295500547969041  0.6747449765438276   T   T   T
  0.4971016313790741  0.3719046624247255  0.6261882276523210   T   T   T
  0.6022737383784502  0.4193329994698658  0.6059361570598156   T   T   T
  0.6309639786597927  0.3776192222638954  0.6542241646164300   T   T   T
  0.7396492684052234  0.5285591506414562  0.5346318106467862   T   T   T
  0.7008216168799990  0.5661285820509150  0.4904404867585299   T   T   T
  0.6325791272056946  0.5536362025628705  0.4865242422508018   T   T   T
  0.6395212986950298  0.4692771266972287  0.5673284143892943   T   T   T
  0.7084389891041738  0.4797449507283744  0.5731468928499694   T   T   T
  0.5913475446020229  0.3322439846602592  0.6890301563113752   T   T   T
  0.3621155385976706  0.4886648434267684  0.5641741494676893   T   T   T
  0.4079093054497847  0.6221162522632184  0.6905821340849272   T   T   T
  0.4761995990866055  0.6260662320125405  0.6766061200079534   T   T   T
  0.5029519004267726  0.5859081997534403  0.6266807345231626   T   T   T
  0.3982542496846690  0.5380013701073381  0.6042608069341640   T   T   T
  0.3690458882875376  0.5775606936400877  0.6539822764036884   T   T   T
  0.3728980183332311  0.4057985744838248  0.4822344263459968   T   T   T
  0.3048650313036774  0.3917349195543522  0.4844316607024837   T   T   T
  0.2642200333112470  0.4278551845596752  0.5282159408033493   T   T   T
  0.4898974460028072  0.2951061755785176  0.7007486442246815   T   T   T
  0.6133423965538753  0.2996835546088974  0.7267315927448266   T   T   T
  0.6842418914042483  0.3807691672235691  0.6647877599206211   T   T   T
  0.5422537376337928  0.3623386063068281  0.4612984096920059   T   T   T
  0.3157908952818858  0.5730691131890495  0.6642036557036946   T   T   T
  0.4441634828272285  0.3711887112164760  0.6136476983190775   T   T   T
  0.4239266543475679  0.6683323006505617  0.2962267113677370   T   T   T
  0.4564276216910557  0.7131327041782853  0.4095026006512654   T   T   T
  0.4880913234146718  0.6335880184396672  0.4990723386450497   T   T   T
  0.5691277819611287  0.4180871276920399  0.4148047552924083   T   T   T
  0.7376744028292279  0.4496391919221736  0.6077651207944683   T   T   T
  0.7227761954524041  0.6048101192338606  0.4590481715460655   T   T   T
  0.4557025321132571  0.4701289434164195  0.3746879018704163   T   T   T
  0.4061433314288649  0.3788855571160283  0.4485254143980342   T   T   T
  0.2844379908883496  0.3530616194792984  0.4520206159696798   T   T   T
  0.7932650224152553  0.5370378666805138  0.5389252695613607   T   T   T
  0.5558970791351641  0.5876913202637795  0.6144061168040338   T   T   T
  0.4241200641418459  0.5432862037421415  0.2798610465361691   T   T   T
  0.5089474053931511  0.6598457027504168  0.7040015608546852   T   T   T
  0.2626598167503218  0.5056852298038379  0.6026542752638733   T   T   T
  0.2107227231304378  0.4181376001185342  0.5310503859432174   T   T   T
  0.6009065435271950  0.5819791361716611  0.4525425874816236   T   T   T
  0.3854435703441368  0.6529670430066687  0.7294113295968074   T   T   T
  0.4742448966374155  0.5479420441878275  0.4414023646065957   T   T   T
  0.4018047860398752  0.4530607863702159  0.5210843569965817   T   T   T
  0.5352070246856329  0.4160849013650960  0.5917324020892210   T   T   T
  0.4654480753692525  0.5425499180623277  0.5904119357124884   T   T   T
  0.6013840979593468  0.5065062148062012  0.5239763799269852   T   T   T
  0.5307398422061809  0.4056260727908878  0.4421545097141788   T   T   T
  0.5008856774430228  0.4808701579411760  0.5193424605133501   T   T   T
 
  0.00000000E+00  0.00000000E+00  0.00000000E+00
  0.00000000E+00  0.00000000E+00  0.00000000E+00
  0.00000000E+00  0.00000000E+00  0.00000000E+00
  0.00000000E+00  0.00000000E+00  0.00000000E+00
  0.00000000E+00  0.00000000E+00  0.00000000E+00
  0.00000000E+00  0.00000000E+00  0.00000000E+00
  0.00000000E+00  0.00000000E+00  0.00000000E+00
  0.00000000E+00  0.00000000E+00  0.00000000E+00
  0.00000000E+00  0.00000000E+00  0.00000000E+00
  0.00000000E+00  0.00000000E+00  0.00000000E+00
  0.00000000E+00  0.00000000E+00  0.00000000E+00
  0.00000000E+00  0.00000000E+00  0.00000000E+00
  0.00000000E+00  0.00000000E+00  0.00000000E+00
  0.00000000E+00  0.00000000E+00  0.00000000E+00
  0.00000000E+00  0.00000000E+00  0.00000000E+00
  0.00000000E+00  0.00000000E+00  0.00000000E+00
  0.00000000E+00  0.00000000E+00  0.00000000E+00
  0.00000000E+00  0.00000000E+00  0.00000000E+00
  0.00000000E+00  0.00000000E+00  0.00000000E+00
  0.00000000E+00  0.00000000E+00  0.00000000E+00
  0.00000000E+00  0.00000000E+00  0.00000000E+00
  0.00000000E+00  0.00000000E+00  0.00000000E+00
  0.00000000E+00  0.00000000E+00  0.00000000E+00
  0.00000000E+00  0.00000000E+00  0.00000000E+00
  0.00000000E+00  0.00000000E+00  0.00000000E+00
  0.00000000E+00  0.00000000E+00  0.00000000E+00
  0.00000000E+00  0.00000000E+00  0.00000000E+00
  0.00000000E+00  0.00000000E+00  0.00000000E+00
  0.00000000E+00  0.00000000E+00  0.00000000E+00
  0.00000000E+00  0.00000000E+00  0.00000000E+00
  0.00000000E+00  0.00000000E+00  0.00000000E+00
  0.00000000E+00  0.00000000E+00  0.00000000E+00
  0.00000000E+00  0.00000000E+00  0.00000000E+00
  0.00000000E+00  0.00000000E+00  0.00000000E+00
  0.00000000E+00  0.00000000E+00  0.00000000E+00
  0.00000000E+00  0.00000000E+00  0.00000000E+00
  0.00000000E+00  0.00000000E+00  0.00000000E+00
  0.00000000E+00  0.00000000E+00  0.00000000E+00
  0.00000000E+00  0.00000000E+00  0.00000000E+00
  0.00000000E+00  0.00000000E+00  0.00000000E+00
  0.00000000E+00  0.00000000E+00  0.00000000E+00
  0.00000000E+00  0.00000000E+00  0.00000000E+00
  0.00000000E+00  0.00000000E+00  0.00000000E+00
  0.00000000E+00  0.00000000E+00  0.00000000E+00
  0.00000000E+00  0.00000000E+00  0.00000000E+00
  0.00000000E+00  0.00000000E+00  0.00000000E+00
  0.00000000E+00  0.00000000E+00  0.00000000E+00
  0.00000000E+00  0.00000000E+00  0.00000000E+00
  0.00000000E+00  0.00000000E+00  0.00000000E+00
  0.00000000E+00  0.00000000E+00  0.00000000E+00
  0.00000000E+00  0.00000000E+00  0.00000000E+00
  0.00000000E+00  0.00000000E+00  0.00000000E+00
  0.00000000E+00  0.00000000E+00  0.00000000E+00
  0.00000000E+00  0.00000000E+00  0.00000000E+00
  0.00000000E+00  0.00000000E+00  0.00000000E+00
