C C H N O Ru                              
   1.00000000000000     
    20.0000000000000000    0.0000000000000000    0.0000000000000000
     0.0000000000000000   20.0000000000000000    0.0000000000000000
     0.0000000000000000    0.0000000000000000   20.0000000000000000
   C    C    H    N    O    Ru
    1    24    23     5     1     1
Selective dynamics
Direct
  0.5230788192282346  0.3295500547969020  0.6747449765438295   T   T   T
  0.4379375222040128  0.5656111042943809  0.3275700835380984   T   T   T
  0.4558120803552775  0.5242337612928353  0.3805146478659928   T   T   T
  0.4737292543489908  0.6153013095478645  0.4498652209597756   T   T   T
  0.4559517527063355  0.6596331169997932  0.3993520125911869   T   T   T
  0.4378573694765606  0.6347220139696840  0.3367597206478926   T   T   T
  0.2933471348813099  0.4767193794847636  0.5683011633032757   T   T   T
  0.4971016313790768  0.3719046624247254  0.6261882276523181   T   T   T
  0.6022737383784491  0.4193329994698665  0.6059361570598121   T   T   T
  0.6309639786597903  0.3776192222638971  0.6542241646164321   T   T   T
  0.7396492684052249  0.5285591506414581  0.5346318106467882   T   T   T
  0.7008216168800014  0.5661285820509121  0.4904404867585325   T   T   T
  0.6325791272056921  0.5536362025628719  0.4865242422507992   T   T   T
  0.6395212986950268  0.4692771266972272  0.5673284143892926   T   T   T
  0.7084389891041727  0.4797449507283741  0.5731468928499688   T   T   T
  0.5913475446020202  0.3322439846602560  0.6890301563113744   T   T   T
  0.3621155385976708  0.4886648434267683  0.5641741494676881   T   T   T
  0.4079093054497848  0.6221162522632171  0.6905821340849306   T   T   T
  0.4761995990866073  0.6260662320125411  0.6766061200079527   T   T   T
  0.5029519004267706  0.5859081997534420  0.6266807345231649   T   T   T
  0.3982542496846668  0.5380013701073392  0.6042608069341646   T   T   T
  0.3690458882875380  0.5775606936400853  0.6539822764036864   T   T   T
  0.3728980183332291  0.4057985744838269  0.4822344263459956   T   T   T
  0.3048650313036795  0.3917349195543521  0.4844316607024817   T   T   T
  0.2642200333112449  0.4278551845596733  0.5282159408033471   T   T   T
  0.4898974460028086  0.2951061755785145  0.7007486442246805   T   T   T
  0.6133423965538735  0.2996835546088963  0.7267315927448248   T   T   T
  0.6842418914042505  0.3807691672235672  0.6647877599206221   T   T   T
  0.5422537376337906  0.3623386063068259  0.4612984096920080   T   T   T
  0.3157908952818854  0.5730691131890474  0.6642036557036978   T   T   T
  0.4441634828272256  0.3711887112164781  0.6136476983190765   T   T   T
  0.4239266543475688  0.6683323006505620  0.2962267113677384   T   T   T
  0.4564276216910578  0.7131327041782849  0.4095026006512679   T   T   T
  0.4880913234146751  0.6335880184396637  0.4990723386450507   T   T   T
  0.5691277819611317  0.4180871276920426  0.4148047552924073   T   T   T
  0.7376744028292300  0.4496391919221740  0.6077651207944667   T   T   T
  0.7227761954524033  0.6048101192338613  0.4590481715460680   T   T   T
  0.4557025321132551  0.4701289434164227  0.3746879018704160   T   T   T
  0.4061433314288614  0.3788855571160277  0.4485254143980331   T   T   T
  0.2844379908883464  0.3530616194793003  0.4520206159696789   T   T   T
  0.7932650224152575  0.5370378666805111  0.5389252695613592   T   T   T
  0.5558970791351673  0.5876913202637772  0.6144061168040321   T   T   T
  0.4241200641418447  0.5432862037421435  0.2798610465361669   T   T   T
  0.5089474053931525  0.6598457027504175  0.7040015608546822   T   T   T
  0.2626598167503239  0.5056852298038381  0.6026542752638748   T   T   T
  0.2107227231304363  0.4181376001185348  0.5310503859432198   T   T   T
  0.6009065435271952  0.5819791361716603  0.4525425874816237   T   T   T
  0.3854435703441398  0.6529670430066704  0.7294113295968054   T   T   T
  0.4742448966374130  0.5479420441878291  0.4414023646065963   T   T   T
  0.4018047860398748  0.4530607863702191  0.5210843569965792   T   T   T
  0.5352070246856349  0.4160849013650930  0.5917324020892176   T   T   T
  0.4654480753692553  0.5425499180623250  0.5904119357124880   T   T   T
  0.6013840979593446  0.5065062148061982  0.5239763799269829   T   T   T
  0.5307398422061781  0.4056260727908890  0.4421545097141810   T   T   T
  0.5008856774430261  0.4808701579411770  0.5193424605133516   T   T   T
 
  0.00000000E+00  0.00000000E+00  0.00000000E+00
  0.00000000E+00  0.00000000E+00  0.00000000E+00
  0.00000000E+00  0.00000000E+00  0.00000000E+00
  0.00000000E+00  0.00000000E+00  0.00000000E+00
  0.00000000E+00  0.00000000E+00  0.00000000E+00
  0.00000000E+00  0.00000000E+00  0.00000000E+00
  0.00000000E+00  0.00000000E+00  0.00000000E+00
  0.00000000E+00  0.00000000E+00  0.00000000E+00
  0.00000000E+00  0.00000000E+00  0.00000000E+00
  0.00000000E+00  0.00000000E+00  0.00000000E+00
  0.00000000E+00  0.00000000E+00  0.00000000E+00
  0.00000000E+00  0.00000000E+00  0.00000000E+00
  0.00000000E+00  0.00000000E+00  0.00000000E+00
  0.00000000E+00  0.00000000E+00  0.00000000E+00
  0.00000000E+00  0.00000000E+00  0.00000000E+00
  0.00000000E+00  0.00000000E+00  0.00000000E+00
  0.00000000E+00  0.00000000E+00  0.00000000E+00
  0.00000000E+00  0.00000000E+00  0.00000000E+00
  0.00000000E+00  0.00000000E+00  0.00000000E+00
  0.00000000E+00  0.00000000E+00  0.00000000E+00
  0.00000000E+00  0.00000000E+00  0.00000000E+00
  0.00000000E+00  0.00000000E+00  0.00000000E+00
  0.00000000E+00  0.00000000E+00  0.00000000E+00
  0.00000000E+00  0.00000000E+00  0.00000000E+00
  0.00000000E+00  0.00000000E+00  0.00000000E+00
  0.00000000E+00  0.00000000E+00  0.00000000E+00
  0.00000000E+00  0.00000000E+00  0.00000000E+00
  0.00000000E+00  0.00000000E+00  0.00000000E+00
  0.00000000E+00  0.00000000E+00  0.00000000E+00
  0.00000000E+00  0.00000000E+00  0.00000000E+00
  0.00000000E+00  0.00000000E+00  0.00000000E+00
  0.00000000E+00  0.00000000E+00  0.00000000E+00
  0.00000000E+00  0.00000000E+00  0.00000000E+00
  0.00000000E+00  0.00000000E+00  0.00000000E+00
  0.00000000E+00  0.00000000E+00  0.00000000E+00
  0.00000000E+00  0.00000000E+00  0.00000000E+00
  0.00000000E+00  0.00000000E+00  0.00000000E+00
  0.00000000E+00  0.00000000E+00  0.00000000E+00
  0.00000000E+00  0.00000000E+00  0.00000000E+00
  0.00000000E+00  0.00000000E+00  0.00000000E+00
  0.00000000E+00  0.00000000E+00  0.00000000E+00
  0.00000000E+00  0.00000000E+00  0.00000000E+00
  0.00000000E+00  0.00000000E+00  0.00000000E+00
  0.00000000E+00  0.00000000E+00  0.00000000E+00
  0.00000000E+00  0.00000000E+00  0.00000000E+00
  0.00000000E+00  0.00000000E+00  0.00000000E+00
  0.00000000E+00  0.00000000E+00  0.00000000E+00
  0.00000000E+00  0.00000000E+00  0.00000000E+00
  0.00000000E+00  0.00000000E+00  0.00000000E+00
  0.00000000E+00  0.00000000E+00  0.00000000E+00
  0.00000000E+00  0.00000000E+00  0.00000000E+00
  0.00000000E+00  0.00000000E+00  0.00000000E+00
  0.00000000E+00  0.00000000E+00  0.00000000E+00
  0.00000000E+00  0.00000000E+00  0.00000000E+00
  0.00000000E+00  0.00000000E+00  0.00000000E+00
